1613919
24 63 26977
63 21 32196
21 3 17216
3 42 13084
42 12 4831
12 32 4813
32 56 1427
56 40 3489
40 5 3130
5 19 15574
19 49 8895
49 23 4353
23 60 7498
60 29 6419
29 6 14521
6 25 11949
25 30 1249
30 41 5056
41 64 28668
64 11 35955
11 66 13370
66 26 57991
26 55 61621
55 34 20835
34 46 36286
46 43 69394
43 7 52950
7 67 19183
67 38 15200
38 31 91427
31 22 39447
22 14 67712
14 52 39276
52 33 101509
33 57 88918
57 18 27906
18 10 28652
10 44 75759
44 53 84806
53 37 6554
37 62 30446
62 39 8740
39 51 11004
51 35 8926
35 68 19070
68 50 52828
50 28 10810
28 16 30472
16 59 10880
59 36 8563
36 8 11459
8 15 6874
15 58 6904
58 9 1777
9 17 5356
17 27 1445
27 45 8214
45 2 15587
2 48 7938
48 65 17626
65 20 13332
20 4 4440
4 47 12782
47 13 9114
13 54 13536
54 1 18207
1 61 16056
61 24 5437
